objective value:                                    4
lambda[0,24]*                                       8 	(obj:0)
lambda[1,25]*                                       3 	(obj:0)
lambda[0,41]*                                       1 	(obj:0)
lambda[1,33]*                                       1 	(obj:0)
lambda[0,45]*                                       1 	(obj:0)
lambda[1,34]*                                       1 	(obj:4)
lambda[1,36]*                                       5 	(obj:0)
